Route #1:
Route #2: 22
Route #3: 16 29 10 19 31 13
Route #4: 3 28 2 21
Route #5: 12 23
Route #6: 15
Route #7: 6
Route #8: 1 14 27
Route #9: 7 26
Route #10: 20
Route #11: 8 4 9
Route #12: 30
Route #13: 24
Route #14: 5 25
Route #15: 18 17 11

Cost: 2234.1687411132916
